120
150
46
46
45
46
46
49
51
46
42
42
50
44
52
46
49
45
49
45
41
52
58
40
60
59
60
49
41
40
42
40
46
54
50
51
60
40
51
60
42
48
40
59
53
51
46
50
60
41
52
59
41
50
40
40
42
49
60
41
52
48
50
59
50
41
40
40
42
48
40
42
52
49
49
40
40
42
51
51
48
46
50
54
40
40
42
48
48
54
60
52
42
59
49
40
58
53
51
46
40
44
42
42
59
51
50
49
44
52
54
53
50
48
54
50
49
57
53
42
54
54
